p edge 720 1728
e 1 321
e 1 395
e 1 714
e 2 59
e 2 353
e 2 632
e 3 11
e 3 122
e 3 199
e 4 26
e 4 43
e 4 128
e 4 244
e 4 284
e 4 305
e 4 309
e 4 401
e 4 442
e 4 455
e 4 456
e 4 690
e 5 129
e 5 270
e 5 294
e 5 347
e 5 368
e 5 511
e 5 523
e 5 573
e 5 580
e 5 582
e 5 604
e 5 649
e 6 236
e 6 290
e 6 701
e 7 92
e 7 637
e 7 650
e 8 115
e 8 437
e 8 682
e 9 251
e 9 342
e 9 388
e 10 41
e 10 94
e 10 103
e 10 173
e 10 264
e 10 282
e 10 311
e 10 335
e 10 641
e 10 653
e 10 692
e 10 705
e 11 15
e 11 34
e 11 150
e 11 187
e 11 223
e 11 229
e 11 326
e 11 454
e 11 470
e 11 497
e 11 629
e 12 384
e 12 654
e 12 663
e 13 23
e 13 102
e 13 152
e 14 39
e 14 74
e 14 108
e 14 132
e 14 143
e 14 352
e 14 427
e 14 562
e 14 571
e 14 628
e 14 646
e 14 712
e 15 104
e 15 378
e 16 62
e 16 63
e 16 84
e 16 116
e 16 160
e 16 253
e 16 256
e 16 422
e 16 427
e 16 469
e 16 557
e 16 694
e 17 255
e 17 360
e 17 616
e 18 124
e 18 236
e 18 258
e 19 72
e 19 589
e 19 701
e 20 451
e 20 453
e 20 499
e 21 36
e 21 60
e 21 158
e 21 185
e 21 210
e 21 343
e 21 566
e 21 569
e 21 588
e 21 595
e 21 627
e 21 670
e 22 75
e 22 117
e 22 223
e 22 280
e 22 304
e 22 349
e 22 484
e 22 522
e 22 543
e 22 580
e 22 602
e 22 675
e 23 52
e 23 178
e 23 227
e 23 296
e 23 423
e 23 431
e 23 439
e 23 610
e 23 674
e 23 689
e 23 719
e 24 236
e 24 411
e 24 682
e 25 307
e 25 317
e 25 462
e 25 476
e 25 483
e 25 487
e 25 495
e 25 544
e 25 602
e 25 633
e 25 668
e 25 676
e 26 493
e 26 558
e 27 143
e 27 209
e 27 333
e 27 345
e 27 366
e 27 460
e 27 479
e 27 534
e 27 605
e 27 615
e 27 657
e 27 666
e 28 37
e 28 106
e 28 125
e 28 157
e 28 207
e 28 226
e 28 240
e 28 421
e 28 440
e 28 620
e 28 709
e 28 717
e 29 323
e 29 360
e 29 547
e 30 57
e 30 505
e 30 700
e 31 101
e 31 148
e 31 630
e 32 477
e 32 482
e 32 550
e 33 348
e 33 486
e 33 701
e 34 395
e 34 449
e 35 290
e 35 505
e 35 542
e 36 435
e 36 654
e 37 486
e 37 650
e 38 334
e 38 390
e 38 415
e 39 81
e 39 101
e 40 112
e 40 369
e 40 673
e 41 112
e 41 122
e 42 122
e 42 642
e 42 682
e 43 147
e 43 664
e 44 138
e 44 227
e 44 276
e 44 356
e 44 381
e 44 412
e 44 432
e 44 455
e 44 504
e 44 509
e 44 638
e 44 719
e 45 393
e 45 520
e 45 531
e 46 57
e 46 321
e 46 608
e 47 306
e 47 390
e 47 494
e 48 306
e 48 373
e 48 378
e 49 348
e 49 612
e 49 637
e 50 90
e 50 542
e 50 663
e 51 152
e 51 416
e 51 508
e 52 388
e 52 661
e 53 122
e 53 362
e 53 481
e 54 101
e 54 104
e 54 115
e 55 199
e 55 411
e 55 661
e 56 361
e 56 451
e 56 558
e 57 70
e 57 86
e 57 113
e 57 194
e 57 221
e 57 223
e 57 338
e 57 510
e 57 567
e 57 660
e 58 87
e 58 390
e 58 435
e 59 127
e 59 162
e 59 177
e 59 218
e 59 301
e 59 421
e 59 480
e 59 540
e 59 590
e 59 593
e 59 619
e 60 369
e 60 699
e 61 546
e 61 693
e 61 715
e 62 245
e 62 592
e 63 499
e 63 630
e 64 102
e 64 148
e 64 550
e 65 124
e 65 558
e 65 612
e 66 451
e 66 494
e 66 664
e 67 145
e 67 152
e 67 475
e 68 237
e 68 268
e 68 650
e 69 152
e 69 482
e 69 701
e 70 82
e 70 87
e 71 80
e 71 415
e 71 637
e 72 181
e 72 337
e 72 365
e 72 420
e 72 465
e 72 487
e 72 512
e 72 591
e 72 670
e 72 684
e 72 709
e 73 126
e 73 147
e 73 245
e 74 80
e 74 589
e 75 250
e 75 290
e 76 81
e 76 489
e 76 558
e 77 453
e 77 489
e 77 617
e 78 112
e 78 547
e 78 617
e 79 96
e 79 106
e 79 134
e 79 301
e 79 302
e 79 357
e 79 382
e 79 410
e 79 422
e 79 460
e 79 590
e 79 716
e 80 142
e 80 156
e 80 180
e 80 209
e 80 313
e 80 339
e 80 440
e 80 514
e 80 575
e 80 694
e 81 98
e 81 118
e 81 217
e 81 252
e 81 259
e 81 266
e 81 425
e 81 488
e 81 565
e 81 705
e 82 118
e 82 119
e 82 123
e 82 230
e 82 267
e 82 498
e 82 516
e 82 519
e 82 529
e 82 618
e 82 634
e 83 321
e 83 348
e 83 612
e 84 361
e 84 390
e 85 632
e 85 637
e 85 699
e 86 547
e 86 697
e 87 133
e 87 140
e 87 142
e 87 146
e 87 240
e 87 447
e 87 544
e 87 577
e 87 579
e 87 671
e 88 348
e 88 362
e 88 369
e 89 581
e 89 612
e 89 673
e 90 96
e 90 296
e 90 340
e 90 370
e 90 380
e 90 455
e 90 500
e 90 552
e 90 559
e 90 621
e 90 636
e 91 100
e 91 437
e 91 508
e 92 94
e 92 157
e 92 162
e 92 231
e 92 246
e 92 431
e 92 461
e 92 478
e 92 574
e 92 611
e 92 636
e 93 208
e 93 216
e 93 316
e 93 318
e 93 332
e 93 458
e 93 541
e 93 569
e 93 598
e 93 620
e 93 668
e 93 681
e 94 361
e 95 104
e 95 434
e 95 700
e 96 558
e 97 130
e 97 150
e 97 175
e 97 214
e 97 244
e 97 307
e 97 309
e 97 371
e 97 397
e 97 502
e 97 614
e 97 656
e 98 362
e 98 547
e 99 437
e 99 451
e 99 616
e 100 107
e 100 221
e 100 248
e 100 372
e 100 424
e 100 442
e 100 502
e 100 543
e 100 555
e 100 621
e 100 679
e 101 156
e 101 359
e 101 430
e 101 454
e 101 464
e 101 551
e 101 557
e 101 605
e 101 658
e 102 171
e 102 278
e 102 279
e 102 280
e 102 317
e 102 329
e 102 356
e 102 518
e 102 556
e 102 565
e 103 520
e 103 702
e 104 136
e 104 161
e 104 169
e 104 325
e 104 433
e 104 518
e 104 548
e 104 560
e 104 573
e 105 152
e 105 290
e 105 353
e 106 673
e 107 290
e 107 449
e 108 110
e 108 499
e 109 268
e 109 530
e 109 699
e 110 212
e 110 239
e 110 262
e 110 263
e 110 402
e 110 497
e 110 523
e 110 527
e 110 639
e 110 692
e 110 711
e 111 334
e 111 342
e 111 550
e 112 118
e 112 179
e 112 180
e 112 215
e 112 239
e 112 330
e 112 387
e 112 446
e 112 480
e 113 126
e 113 148
e 114 295
e 114 390
e 114 637
e 115 193
e 115 198
e 115 304
e 115 385
e 115 397
e 115 398
e 115 532
e 115 567
e 115 603
e 115 639
e 116 494
e 116 583
e 117 395
e 117 700
e 119 199
e 119 520
e 120 236
e 120 353
e 120 374
e 121 188
e 121 468
e 121 699
e 122 132
e 122 191
e 122 204
e 122 347
e 122 538
e 122 586
e 122 603
e 122 695
e 123 353
e 123 693
e 124 128
e 124 138
e 124 178
e 124 328
e 124 354
e 124 372
e 124 410
e 124 491
e 124 574
e 124 652
e 125 404
e 125 415
e 126 213
e 126 241
e 126 357
e 126 426
e 126 428
e 126 528
e 126 549
e 126 566
e 126 619
e 126 710
e 127 237
e 127 362
e 128 152
e 129 251
e 129 597
e 130 682
e 130 700
e 131 188
e 131 414
e 131 650
e 132 361
e 133 261
e 133 435
e 134 416
e 134 664
e 135 373
e 135 637
e 135 697
e 136 334
e 136 642
e 137 321
e 137 592
e 137 673
e 138 508
e 139 415
e 139 435
e 139 583
e 140 334
e 140 630
e 141 360
e 141 361
e 141 453
e 142 581
e 143 369
e 144 290
e 144 550
e 144 661
e 145 169
e 145 200
e 145 206
e 145 266
e 145 276
e 145 315
e 145 349
e 145 476
e 145 553
e 145 610
e 145 707
e 146 492
e 146 583
e 147 154
e 147 286
e 147 330
e 147 344
e 147 367
e 147 514
e 147 541
e 147 626
e 147 670
e 147 703
e 148 166
e 148 169
e 148 234
e 148 358
e 148 376
e 148 535
e 148 539
e 148 607
e 148 698
e 149 451
e 149 481
e 149 702
e 150 251
e 151 228
e 151 290
e 151 663
e 152 201
e 152 242
e 152 370
e 152 377
e 152 391
e 152 689
e 153 547
e 153 693
e 153 701
e 154 222
e 154 404
e 155 481
e 155 486
e 155 494
e 156 306
e 157 699
e 158 188
e 158 492
e 159 261
e 159 295
e 159 650
e 160 369
e 160 576
e 161 290
e 161 477
e 162 701
e 163 203
e 163 211
e 163 608
e 164 228
e 164 378
e 164 700
e 165 306
e 165 361
e 165 630
e 166 211
e 166 395
e 167 306
e 167 468
e 167 592
e 168 404
e 168 581
e 168 697
e 170 323
e 170 520
e 170 715
e 171 617
e 171 664
e 172 306
e 172 404
e 172 434
e 173 222
e 173 597
e 174 250
e 174 258
e 174 437
e 175 258
e 175 374
e 176 306
e 176 369
e 176 448
e 177 581
e 177 592
e 178 632
e 179 237
e 179 348
e 180 493
e 181 583
e 181 637
e 182 342
e 182 597
e 182 682
e 183 236
e 183 482
e 183 546
e 184 393
e 184 701
e 184 715
e 185 237
e 185 572
e 186 306
e 186 530
e 186 576
e 187 255
e 187 682
e 188 274
e 188 281
e 188 289
e 188 311
e 188 355
e 188 425
e 188 474
e 188 503
e 188 706
e 189 486
e 189 572
e 189 637
e 190 323
e 190 411
e 190 477
e 191 323
e 191 700
e 192 493
e 192 508
e 192 664
e 193 395
e 193 505
e 194 211
e 194 714
e 195 203
e 195 250
e 195 468
e 196 378
e 196 583
e 196 714
e 197 342
e 197 505
e 197 702
e 198 251
e 198 255
e 199 287
e 199 294
e 199 336
e 199 346
e 199 407
e 199 423
e 199 527
e 199 532
e 199 625
e 200 228
e 200 608
e 201 364
e 201 411
e 202 236
e 202 475
e 202 489
e 203 234
e 203 304
e 203 319
e 203 424
e 203 528
e 203 568
e 203 577
e 203 629
e 203 634
e 203 683
e 204 448
e 204 494
e 205 222
e 205 237
e 205 673
e 206 558
e 206 617
e 207 348
e 207 592
e 208 390
e 208 581
e 209 378
e 210 211
e 210 693
e 211 218
e 211 293
e 211 367
e 211 394
e 211 463
e 211 578
e 211 584
e 211 716
e 212 222
e 212 481
e 213 303
e 213 702
e 214 290
e 214 508
e 215 232
e 215 715
e 216 630
e 216 637
e 217 222
e 217 715
e 218 592
e 219 303
e 219 369
e 219 650
e 220 295
e 220 536
e 220 546
e 221 414
e 222 265
e 222 389
e 222 516
e 222 538
e 222 540
e 222 575
e 222 713
e 224 581
e 224 632
e 224 650
e 225 360
e 225 531
e 225 702
e 226 572
e 226 632
e 227 489
e 228 329
e 228 396
e 228 398
e 228 408
e 228 454
e 228 501
e 228 535
e 228 604
e 228 640
e 229 364
e 229 437
e 230 395
e 230 697
e 231 572
e 231 581
e 232 277
e 232 311
e 232 315
e 232 389
e 232 417
e 232 529
e 232 537
e 232 556
e 232 562
e 232 564
e 232 658
e 233 364
e 233 597
e 233 642
e 234 321
e 235 334
e 235 583
e 235 697
e 236 278
e 236 284
e 236 380
e 236 610
e 236 674
e 236 696
e 237 300
e 237 376
e 237 469
e 237 479
e 237 517
e 237 524
e 237 712
e 238 414
e 238 572
e 238 654
e 239 531
e 240 373
e 241 268
e 241 693
e 242 411
e 242 489
e 243 416
e 243 475
e 243 632
e 244 482
e 245 293
e 245 302
e 245 355
e 245 363
e 245 409
e 245 424
e 245 436
e 245 534
e 245 660
e 245 688
e 246 494
e 246 531
e 247 481
e 247 617
e 247 654
e 248 416
e 248 663
e 249 342
e 249 449
e 249 693
e 250 275
e 250 309
e 250 340
e 250 392
e 250 491
e 250 526
e 250 600
e 250 623
e 250 660
e 251 263
e 251 298
e 251 346
e 251 368
e 251 391
e 251 509
e 251 586
e 251 674
e 252 378
e 252 448
e 253 378
e 253 404
e 254 405
e 254 414
e 254 699
e 255 257
e 255 305
e 255 386
e 255 442
e 255 467
e 255 490
e 255 606
e 255 623
e 255 676
e 256 468
e 256 612
e 257 482
e 257 508
e 258 288
e 258 308
e 258 327
e 258 370
e 258 386
e 258 467
e 258 502
e 258 638
e 258 703
e 259 405
e 259 531
e 260 415
e 260 492
e 260 616
e 261 280
e 261 318
e 261 322
e 261 350
e 261 420
e 261 441
e 261 606
e 261 609
e 261 656
e 261 707
e 262 494
e 262 576
e 263 642
e 264 393
e 264 451
e 265 373
e 265 493
e 266 664
e 267 701
e 267 702
e 268 394
e 268 472
e 268 474
e 268 541
e 268 591
e 268 645
e 268 647
e 268 678
e 268 691
e 269 448
e 269 499
e 269 597
e 270 364
e 270 388
e 271 530
e 271 536
e 271 714
e 272 373
e 272 448
e 272 536
e 273 348
e 273 546
e 273 632
e 274 384
e 274 477
e 275 395
e 275 414
e 276 411
e 277 531
e 277 654
e 278 411
e 279 449
e 279 616
e 281 589
e 281 661
e 282 405
e 282 617
e 283 306
e 283 414
e 283 612
e 284 416
e 285 388
e 285 642
e 285 682
e 286 453
e 286 508
e 287 342
e 287 364
e 288 437
e 288 482
e 289 531
e 289 617
e 290 386
e 290 432
e 290 456
e 291 361
e 291 486
e 291 531
e 292 361
e 292 481
e 292 632
e 293 299
e 294 682
e 295 324
e 295 343
e 295 344
e 295 375
e 295 466
e 295 472
e 295 507
e 295 633
e 295 717
e 296 486
e 297 411
e 297 416
e 297 486
e 298 437
e 298 700
e 299 327
e 299 343
e 299 428
e 299 446
e 299 525
e 299 575
e 299 591
e 299 598
e 299 613
e 299 655
e 299 690
e 300 303
e 300 699
e 301 321
e 302 306
e 303 344
e 303 399
e 303 438
e 303 445
e 303 463
e 303 503
e 303 570
e 303 598
e 303 684
e 305 374
e 306 351
e 306 712
e 307 451
e 308 453
e 308 493
e 310 388
e 310 451
e 310 715
e 312 362
e 312 530
e 312 673
e 313 536
e 313 576
e 314 481
e 314 520
e 314 693
e 315 453
e 316 353
e 316 384
e 317 505
e 318 699
e 319 697
e 319 715
e 320 632
e 320 673
e 320 701
e 321 363
e 321 399
e 321 588
e 321 613
e 321 626
e 321 678
e 322 334
e 322 415
e 323 368
e 323 419
e 323 439
e 323 470
e 323 498
e 323 513
e 323 639
e 323 665
e 324 572
e 324 616
e 325 482
e 325 663
e 326 434
e 326 550
e 327 664
e 328 477
e 328 542
e 329 714
e 330 373
e 331 361
e 331 520
e 331 664
e 332 616
e 332 650
e 333 373
e 333 434
e 334 474
e 334 483
e 334 570
e 334 604
e 334 627
e 334 671
e 335 494
e 335 632
e 336 451
e 336 547
e 337 353
e 337 536
e 338 468
e 338 542
e 339 384
e 339 448
e 340 661
e 341 477
e 341 589
e 341 654
e 342 402
e 342 484
e 342 501
e 342 548
e 342 586
e 342 665
e 345 448
e 345 530
e 346 642
e 347 364
e 348 382
e 348 426
e 348 478
e 348 713
e 348 716
e 349 616
e 350 437
e 350 520
e 351 499
e 351 583
e 352 373
e 352 384
e 353 381
e 353 478
e 353 507
e 353 521
e 353 561
e 353 631
e 354 475
e 354 486
e 355 572
e 356 475
e 357 673
e 358 434
e 358 583
e 359 583
e 359 608
e 360 406
e 360 407
e 360 444
e 360 495
e 360 519
e 360 635
e 360 653
e 360 656
e 361 615
e 361 708
e 361 711
e 362 514
e 362 529
e 362 599
e 362 655
e 362 669
e 362 685
e 362 692
e 363 493
e 364 397
e 364 402
e 364 419
e 364 490
e 364 696
e 364 719
e 365 616
e 365 699
e 366 494
e 366 630
e 367 468
e 369 540
e 369 563
e 369 643
e 369 647
e 369 698
e 371 520
e 371 616
e 372 661
e 373 557
e 373 585
e 373 601
e 373 655
e 374 377
e 374 418
e 374 504
e 374 506
e 374 543
e 374 560
e 374 600
e 374 640
e 374 680
e 375 581
e 375 583
e 376 536
e 377 546
e 378 385
e 378 417
e 378 539
e 378 646
e 378 648
e 379 388
e 379 411
e 379 663
e 380 508
e 381 482
e 382 581
e 383 435
e 383 630
e 383 697
e 384 450
e 384 465
e 384 466
e 384 515
e 384 517
e 384 622
e 384 698
e 385 550
e 387 481
e 387 597
e 388 443
e 388 497
e 388 519
e 388 603
e 388 667
e 388 718
e 389 547
e 390 473
e 390 539
e 390 551
e 390 657
e 390 704
e 390 709
e 391 475
e 392 449
e 392 482
e 393 400
e 393 406
e 393 463
e 393 484
e 393 521
e 393 566
e 393 618
e 393 649
e 393 678
e 394 702
e 395 429
e 395 447
e 395 549
e 395 679
e 395 688
e 396 482
e 396 661
e 398 434
e 399 693
e 400 505
e 400 642
e 401 437
e 401 542
e 403 592
e 403 637
e 403 673
e 404 446
e 404 515
e 404 579
e 404 605
e 404 628
e 404 644
e 404 685
e 405 436
e 405 445
e 405 471
e 405 554
e 405 564
e 405 587
e 405 622
e 405 627
e 405 691
e 406 481
e 407 715
e 408 492
e 408 642
e 409 654
e 409 699
e 410 453
e 411 509
e 411 559
e 411 574
e 412 475
e 412 682
e 413 416
e 413 558
e 413 592
e 414 422
e 414 428
e 414 584
e 414 626
e 414 666
e 414 683
e 415 429
e 415 462
e 415 510
e 415 585
e 415 596
e 415 634
e 416 431
e 416 496
e 416 526
e 416 638
e 416 651
e 417 576
e 418 449
e 418 542
e 419 642
e 420 572
e 421 612
e 423 477
e 425 481
e 426 592
e 427 530
e 429 547
e 430 576
e 430 617
e 432 546
e 433 489
e 433 714
e 434 459
e 434 473
e 434 488
e 434 562
e 434 687
e 434 694
e 435 452
e 435 462
e 435 485
e 435 501
e 435 503
e 435 573
e 435 691
e 436 650
e 437 456
e 437 495
e 437 680
e 438 530
e 438 572
e 439 663
e 440 697
e 441 492
e 441 697
e 443 475
e 443 477
e 444 499
e 444 664
e 445 492
e 447 715
e 448 459
e 448 469
e 448 644
e 448 658
e 448 711
e 449 476
e 449 567
e 449 568
e 449 609
e 449 649
e 449 659
e 450 530
e 450 608
e 451 498
e 451 606
e 451 677
e 452 616
e 452 697
e 453 457
e 453 552
e 453 565
e 453 651
e 453 690
e 457 494
e 457 520
e 458 536
e 458 701
e 459 617
e 460 468
e 461 481
e 461 499
e 464 550
e 464 700
e 465 546
e 466 701
e 467 542
e 468 533
e 468 587
e 468 613
e 468 679
e 468 710
e 470 597
e 471 589
e 471 663
e 472 493
e 473 608
e 475 513
e 475 625
e 475 636
e 475 696
e 477 526
e 477 554
e 477 621
e 477 640
e 479 576
e 480 530
e 481 564
e 482 555
e 482 675
e 483 697
e 485 550
e 485 642
e 486 545
e 486 561
e 486 593
e 486 641
e 487 650
e 488 576
e 489 535
e 489 537
e 489 594
e 489 602
e 489 609
e 489 686
e 490 700
e 491 663
e 492 544
e 492 548
e 492 582
e 492 596
e 492 645
e 492 704
e 493 569
e 493 584
e 493 684
e 493 685
e 493 710
e 494 571
e 494 635
e 496 542
e 496 661
e 499 641
e 499 657
e 499 672
e 499 695
e 499 720
e 500 612
e 500 664
e 504 701
e 505 511
e 505 555
e 505 600
e 505 629
e 505 686
e 505 707
e 506 550
e 506 663
e 507 589
e 508 525
e 508 614
e 508 623
e 508 680
e 510 715
e 511 693
e 512 581
e 512 630
e 513 661
e 515 576
e 516 617
e 517 714
e 518 608
e 520 667
e 520 672
e 520 676
e 521 547
e 522 642
e 522 693
e 523 682
e 524 589
e 524 608
e 525 558
e 527 700
e 528 714
e 530 595
e 530 607
e 530 713
e 531 538
e 531 669
e 531 677
e 531 720
e 532 597
e 533 650
e 533 654
e 534 612
e 536 554
e 536 624
e 536 628
e 536 643
e 536 706
e 537 664
e 542 614
e 542 675
e 542 683
e 542 688
e 545 581
e 545 699
e 546 593
e 546 611
e 546 618
e 546 662
e 546 681
e 547 577
e 547 662
e 547 667
e 549 608
e 550 553
e 550 582
e 550 594
e 551 714
e 552 592
e 553 714
e 556 558
e 558 635
e 558 672
e 558 703
e 559 632
e 560 661
e 561 673
e 563 589
e 563 714
e 568 700
e 570 654
e 571 597
e 572 587
e 572 647
e 572 668
e 576 601
e 576 695
e 576 708
e 578 612
e 578 673
e 579 637
e 580 702
e 581 585
e 583 615
e 583 620
e 588 702
e 589 601
e 589 607
e 589 644
e 589 681
e 590 637
e 592 652
e 592 666
e 594 608
e 595 650
e 596 630
e 597 669
e 597 708
e 597 718
e 599 617
e 599 715
e 608 643
e 608 648
e 611 673
e 612 619
e 612 651
e 616 671
e 616 686
e 617 646
e 622 661
e 624 654
e 624 661
e 625 663
e 630 648
e 630 687
e 630 717
e 631 702
e 631 715
e 632 720
e 633 699
e 642 659
e 645 654
e 652 664
e 653 693
e 654 705
e 659 702
e 662 702
e 663 706
e 665 682
e 677 693
e 682 689
e 687 714
e 697 704
e 700 718
